NAME: ACTUAL_TOURS/amz1185
TYPE: TOUR
COMMENT: RouteID_7e412e6a-d3c6-435c-8f8c-60ac7538d02d
DIMENSION: 75
TOUR_SECTION
16
57
63
48
3
68
59
69
27
74
72
52
58
6
10
23
42
44
51
8
21
31
38
62
47
54
18
37
32
75
34
49
64
70
40
28
9
11
41
71
19
35
46
33
5
14
56
65
20
13
2
55
17
66
61
15
29
26
7
73
1
24
53
43
50
4
60
30
39
45
25
22
67
12
36
-1
EOF
